!   File created by MacMolPlt 7.7.2 
 $CONTRL SCFTYP=RHF RUNTYP=ENERGY MAXIT=30 MULT=1 $END 
 $SYSTEM TIMLIM=525600 MWORDS=50 MEMDDI=200 $END 
 $BASIS GBASIS=STO NGAUSS=3 $END 
 $SCF DIRSCF=.TRUE. $END
 $DATA
Title
C1
C 6.0 1.04004 -0.03015 0.08995
C 6.0 2.55289 -0.00295 -0.05580
O 8.0 3.16138 -0.23085 1.16533
C 6.0 4.51119 -0.25943 1.31845
O 8.0 5.23563 -0.07831 0.34798
C 6.0 5.09582 -0.51644 2.69551
C 6.0 6.61142 -0.53190 2.77833
O 8.0 7.30070 -0.34621 1.78343
O 8.0 7.20820 -0.75586 3.97830
C 6.0 8.58220 -0.78515 4.13522
C 6.0 8.94669 -1.05590 5.58592
H 1.0 0.57187 0.15475 -0.90076
H 1.0 0.70908 0.76022 0.79596
H 1.0 0.70908 -1.02197 0.46334
H 1.0 2.85972 0.99201 -0.44752
H 1.0 2.85972 -0.78962 -0.78004
H 1.0 4.72013 -1.49914 3.05257
H 1.0 4.72013 0.27130 3.38300
H 1.0 9.01508 0.19345 3.83111
H 1.0 9.01508 -1.58817 3.49859
H 1.0 8.53939 -0.25564 6.23886
H 1.0 10.05293 -1.07525 5.68959
H 1.0 8.53939 -2.03782 5.90624
 $END
