!   File created by MacMolPlt 7.7.2 
 $CONTRL SCFTYP=RHF RUNTYP=ENERGY MAXIT=30 MULT=1 $END 
 $SYSTEM TIMLIM=525600 MWORDS=50 MEMDDI=200 $END 
 $BASIS GBASIS=STO NGAUSS=3 $END 
 $SCF DIRSCF=.TRUE. $END
 $DATA
Title
C1
C 6.0 0.88192 0.15027 0.10724
C 6.0 2.41844 0.10703 -0.01374
C 6.0 2.93951 -1.30125 -0.36660
N 7.0 2.63682 -1.66506 -1.76186
C 6.0 3.13151 -0.65982 -2.72396
C 6.0 2.59247 0.73939 -2.37149
N 7.0 2.93516 1.09065 -0.98536
C 6.0 4.66688 -0.66936 -2.81046
H 1.0 0.54970 -0.55818 0.89559
H 1.0 0.36622 -0.12643 -0.83244
H 1.0 0.55577 1.17018 0.40150
H 1.0 2.81358 0.36870 0.99261
H 1.0 2.51081 -2.05762 0.32604
H 1.0 4.03753 -1.33025 -0.21236
H 1.0 1.60206 -1.76976 -1.87559
H 1.0 2.76236 -0.93087 -3.73818
H 1.0 1.49181 0.76310 -2.51221
H 1.0 3.01758 1.49436 -3.06796
H 1.0 2.56369 2.04360 -0.76256
H 1.0 5.14471 -0.35536 -1.86081
H 1.0 5.00227 0.03330 -3.60279
H 1.0 5.02224 -1.68770 -3.07515
 $END
