!   File created by MacMolPlt 7.7.2 
 $CONTRL SCFTYP=RHF RUNTYP=ENERGY MAXIT=30 MULT=1 $END 
 $SYSTEM TIMLIM=525600 MWORDS=50 MEMDDI=200 $END 
 $BASIS GBASIS=STO NGAUSS=3 $END 
 $SCF DIRSCF=.TRUE. $END
 $DATA
Title
C1
C 6.0 1.12034 -0.00988 0.04871
C 6.0 0.51071 -1.40723 -0.15125
C 6.0 -0.99930 -1.40142 -0.15042
O 8.0 -1.62600 -0.36325 -0.00185
O 8.0 -1.67441 -2.55801 -0.31593
C 6.0 2.63402 0.01510 0.05229
O 8.0 3.19598 1.08751 0.20575
O 8.0 3.39229 -1.09487 -0.10655
H 1.0 0.76695 0.40049 1.01997
H 1.0 0.76695 0.65642 -0.76847
H 1.0 0.85076 -2.07566 0.66896
H 1.0 0.85076 -1.81880 -1.12601
H 1.0 -1.21201 -3.39945 -0.43634
H 1.0 3.03117 -1.98135 -0.23341
 $END
